c SAT problem
p wcnf 854 2358
1 60 3150 0
1 60 3120 0
1 -75 -76 0
1 75 -3120 0
1 -75 -60 0
1 90 -3165 0
1 -105 -3120 0
1 -3120 -105 0
1 -3150 -136 0
1 -3150 181 0
1 3150 -151 0
1 3150 -121 0
1 3165 75 0
1 3165 3150 0
1 3165 3166 0
1 -120 3075 0
1 -120 3090 0
1 120 -121 0
1 120 -3135 0
1 135 3060 0
1 -135 -3135 0
1 -150 3045 0
1 -150 3030 0
1 150 151 0
1 150 -3000 0
1 165 -166 0
1 165 -3090 0
1 165 150 0
1 -3060 225 0
1 3060 -3075 0
1 -3060 210 0
1 -3075 3076 0
1 -3075 165 0
1 3075 240 0
1 -3075 -3060 0
1 -3075 -120 0
1 -3075 -255 0
1 3090 -3091 0
1 -3090 -181 0
1 -3090 90 0
1 -3105 196 0
1 3105 -90 0
1 -180 3075 0
1 195 3075 0
1 195 3030 0
1 -210 -3045 0
1 -210 -211 0
1 210 -3000 0
1 225 3045 0
1 3015 -165 0
1 -3015 315 0
1 3045 -195 0
1 -61 -3330 0
1 -61 -3315 0
1 -76 77 0
1 -91 106 0
1 91 -3255 0
1 91 -90 0
1 -106 -3345 0
1 -106 91 0
1 -3300 166 0
1 -3300 -76 0
1 -3315 -3300 0
1 -3315 -106 0
1 -3315 182 0
1 3330 -76 0
1 3330 152 0
1 3330 -122 0
1 -121 3150 0
1 121 -3255 0
1 -136 3315 0
1 151 -3180 0
1 -151 152 0
1 -166 3285 0
1 -3240 3255 0
1 3240 136 0
1 -3240 241 0
1 3255 -136 0
1 -3255 3240 0
1 -3255 -241 0
1 3255 -151 0
1 3270 -256 0
1 3270 -106 0
1 3285 -256 0
1 3285 136 0
1 3285 -3286 0
1 3285 91 0
1 -181 -3105 0
1 -181 -3240 0
1 181 -3180 0
1 -181 3150 0
1 181 -3255 0
1 -181 3195 0
1 181 -3165 0
1 -196 -195 0
1 -196 -3240 0
1 -196 -3195 0
1 211 -3105 0
1 -211 3210 0
1 -211 212 0
1 -211 3225 0
1 -211 -3166 0
1 226 3105 0
1 -226 3210 0
1 226 3151 0
1 -226 -3166 0
1 -3180 166 0
1 -3180 301 0
1 3195 3180 0
1 3210 166 0
1 3225 3210 0
1 3225 -211 0
1 3225 -3226 0
1 -240 3045 0
1 -240 3180 0
1 255 -3136 0
1 270 -3045 0
1 270 3151 0
1 270 -3121 0
1 -270 -3091 0
1 -270 -3061 0
1 -285 270 0
1 -285 3121 0
1 285 -3166 0
1 -285 -3195 0
1 -3121 361 0
1 -3121 3120 0
1 -3136 240 0
1 3136 3135 0
1 -3136 -285 0
1 3151 240 0
1 -3151 255 0
1 300 3136 0
1 300 3061 0
1 315 3045 0
1 315 -3121 0
1 330 3106 0
1 330 3076 0
1 -330 3016 0
1 330 -3031 0
1 3061 -3076 0
1 -3061 -360 0
1 3061 -330 0
1 -3061 285 0
1 3076 -405 0
1 3076 -3061 0
1 3076 375 0
1 -3076 345 0
1 -3091 435 0
1 -3091 -345 0
1 3091 -285 0
1 3106 -420 0
1 375 3031 0
1 -3001 360 0
1 -3001 3000 0
1 3016 405 0
1 -3016 -375 0
1 -3031 390 0
1 3031 -3046 0
1 -3031 3030 0
1 -3046 420 0
1 3046 -360 0
1 -62 77 0
1 -62 3480 0
1 92 -3465 0
1 -92 3450 0
1 -107 108 0
1 -3480 -198 0
1 3480 77 0
1 3480 -183 0
1 3480 152 0
1 -3495 -3480 0
1 3495 -167 0
1 -3495 92 0
1 -3510 153 0
1 -3510 92 0
1 3525 138 0
1 3525 107 0
1 -3525 -77 0
1 -3525 -92 0
1 3525 62 0
1 122 -121 0
1 -122 -3450 0
1 137 -3495 0
1 137 -122 0
1 -152 -167 0
1 152 3480 0
1 -167 -3330 0
1 -167 -3435 0
1 -167 -152 0
1 167 -3390 0
1 3420 167 0
1 -3420 212 0
1 -3420 -122 0
1 -3435 257 0
1 -3435 -197 0
1 -3435 107 0
1 -3435 -3420 0
1 -3450 257 0
1 3450 -167 0
1 3450 -137 0
1 3450 -3465 0
1 -3450 -152 0
1 -3450 -122 0
1 3450 3451 0
1 3465 -3466 0
1 3465 -107 0
1 3465 242 0
1 -3465 -213 0
1 182 -3360 0
1 182 -3330 0
1 182 3300 0
1 -182 -3270 0
1 -182 3405 0
1 -182 3375 0
1 -182 3315 0
1 -197 -3345 0
1 -212 -3301 0
1 212 3405 0
1 212 211 0
1 212 3420 0
1 -227 -3331 0
1 -3360 -227 0
1 3360 167 0
1 -3360 241 0
1 -3360 182 0
1 -3375 3360 0
1 3375 -317 0
1 3390 3405 0
1 3390 -242 0
1 -3390 152 0
1 3405 -302 0
1 -3405 152 0
1 241 256 0
1 -241 -3360 0
1 241 -3375 0
1 241 -242 0
1 -241 3316 0
1 256 -3360 0
1 256 -255 0
1 -271 286 0
1 286 3346 0
1 286 -3256 0
1 -286 -3225 0
1 -3301 227 0
1 3301 301 0
1 -3301 -241 0
1 3301 286 0
1 -3316 -301 0
1 3331 3330 0
1 -3331 227 0
1 -3331 3346 0
1 3346 -256 0
1 3346 -227 0
1 -3346 -347 0
1 3346 317 0
1 -3346 -286 0
1 301 3151 0
1 -301 3286 0
1 301 316 0
1 316 -3301 0
1 -316 3271 0
1 316 3210 0
1 -316 3180 0
1 -316 -3151 0
1 -316 3316 0
1 -316 3256 0
1 331 -346 0
1 331 -3166 0
1 346 3271 0
1 -346 -3181 0
1 -3241 3240 0
1 3241 -301 0
1 -3256 -436 0
1 -3256 406 0
1 3271 421 0
1 -3271 -3270 0
1 -3271 3272 0
1 3271 316 0
1 -3271 -286 0
1 -3286 -421 0
1 -3286 -3271 0
1 3286 -346 0
1 -3286 -286 0
1 -361 360 0
1 361 -362 0
1 361 -3181 0
1 361 3151 0
1 376 -3241 0
1 -376 -3211 0
1 -376 -3121 0
1 376 -3166 0
1 391 392 0
1 -391 3211 0
1 -391 406 0
1 406 -407 0
1 -3181 -481 0
1 -3181 -496 0
1 -3181 465 0
1 3196 391 0
1 -3211 421 0
1 -3211 436 0
1 420 -3106 0
1 420 435 0
1 420 -3091 0
1 -420 -3061 0
1 -435 3046 0
1 435 -436 0
1 450 -465 0
1 -450 -3062 0
1 465 3137 0
1 -465 3107 0
1 -465 3152 0
1 3122 -525 0
1 -3137 -3136 0
1 3137 -420 0
1 3137 391 0
1 3137 406 0
1 3152 -481 0
1 -3152 391 0
1 3152 556 0
1 -3152 -465 0
1 -3152 541 0
1 -3167 -556 0
1 3167 -496 0
1 -3167 511 0
1 480 -3107 0
1 -495 3077 0
1 -495 3122 0
1 -495 3031 0
1 -510 -525 0
1 510 3002 0
1 -525 3107 0
1 -525 -526 0
1 -525 3122 0
1 525 3032 0
1 -3062 3077 0
1 3062 3061 0
1 3062 600 0
1 3077 480 0
1 3077 3076 0
1 -3077 -585 0
1 3077 555 0
1 3077 -3062 0
1 -3077 570 0
1 3107 -600 0
1 -3107 510 0
1 -555 -3017 0
1 -555 -3002 0
1 585 3002 0
1 -585 570 0
1 3002 675 0
1 -3002 -585 0
1 -3002 -3003 0
1 3017 3016 0
1 -3017 585 0
1 -3017 660 0
1 3032 3047 0
1 93 -3705 0
1 93 -94 0
1 -108 -107 0
1 108 -3660 0
1 108 93 0
1 -108 -3615 0
1 3660 -199 0
1 3660 -153 0
1 3690 199 0
1 -3690 -169 0
1 3690 -93 0
1 -3705 108 0
1 3705 3706 0
1 123 -138 0
1 -138 -3660 0
1 138 -3630 0
1 -153 154 0
1 168 -167 0
1 -168 153 0
1 3600 258 0
1 3600 3601 0
1 -3600 -183 0
1 3615 108 0
1 -3615 -243 0
1 -3615 -153 0
1 3615 123 0
1 3630 -3645 0
1 3630 229 0
1 -3630 108 0
1 3630 -243 0
1 -3645 258 0
1 3645 -108 0
1 3645 153 0
1 -183 3525 0
1 183 3615 0
1 198 -3555 0
1 198 199 0
1 -198 3600 0
1 198 -3570 0
1 -198 3510 0
1 198 3480 0
1 228 3555 0
1 -228 -3570 0
1 -228 -3450 0
1 -228 3615 0
1 3540 303 0
1 -3540 318 0
1 -3555 303 0
1 3555 272 0
1 3570 258 0
1 3570 303 0
1 3585 -198 0
1 3585 273 0
1 -3585 243 0
1 -3585 -183 0
1 3585 -318 0
1 -242 -3555 0
1 242 3465 0
1 242 3435 0
1 242 -241 0
1 242 3540 0
1 -257 3555 0
1 -257 -3481 0
1 -257 3450 0
1 -272 3555 0
1 272 -3421 0
1 287 3481 0
1 -287 286 0
1 -3481 -228 0
1 -3481 3496 0
1 -3481 -363 0
1 3481 378 0
1 3481 -287 0
1 3496 228 0
1 3511 242 0
1 3511 213 0
1 -3526 3527 0
1 3526 -333 0
1 -3526 -303 0
1 3526 348 0
1 -3526 318 0
1 -302 -3481 0
1 302 -3421 0
1 302 3390 0
1 317 -3481 0
1 -317 3451 0
1 332 -3361 0
1 -332 3331 0
1 -332 -333 0
1 -347 3331 0
1 347 3436 0
1 -347 -3406 0
1 -347 -3451 0
1 -347 -3391 0
1 -3421 362 0
1 -3421 407 0
1 -3436 362 0
1 -3436 347 0
1 3436 287 0
1 3451 272 0
1 -3466 332 0
1 -3466 347 0
1 362 -363 0
1 -362 -3346 0
1 377 3436 0
1 -377 3406 0
1 -377 -3376 0
1 -377 3421 0
1 377 -3391 0
1 392 3271 0
1 -392 3376 0
1 392 -3347 0
1 -392 3286 0
1 -392 407 0
1 -407 3302 0
1 -407 -3317 0
1 -407 3286 0
1 3361 -482 0
1 3361 -451 0
1 3361 -421 0
1 3361 3376 0
1 3361 -377 0
1 3376 421 0
1 -3376 332 0
1 3391 482 0
1 3391 -497 0
1 -3391 377 0
1 3406 452 0
1 3406 -392 0
1 421 3361 0
1 421 -3271 0
1 421 -3241 0
1 421 -3256 0
1 436 3211 0
1 436 -3376 0
1 436 3256 0
1 -451 -3361 0
1 -451 -452 0
1 -451 -3332 0
1 451 3272 0
1 451 3242 0
1 -451 -3211 0
1 -451 3376 0
1 451 3347 0
1 -451 -3317 0
1 -466 -3242 0
1 466 3376 0
1 466 -465 0
1 -3302 -392 0
1 3302 496 0
1 -3302 436 0
1 3317 -3302 0
1 -3317 -3316 0
1 3332 -512 0
1 -3332 421 0
1 -3332 392 0
1 -3347 -421 0
1 3347 3348 0
1 496 481 0
1 496 -495 0
1 -496 497 0
1 511 -3182 0
1 -526 3302 0
1 -526 -525 0
1 526 -3182 0
1 526 3152 0
1 526 -3197 0
1 -526 3167 0
1 3242 3257 0
1 -3242 -3241 0
1 3242 -496 0
1 3242 -466 0
1 -3257 -526 0
1 3272 -616 0
1 3272 -3273 0
1 3272 -526 0
1 -3272 466 0
1 -3287 3272 0
1 541 3242 0
1 -541 -3122 0
1 541 -3227 0
1 -541 3167 0
1 -556 555 0
1 556 3092 0
1 556 3257 0
1 -556 -541 0
1 -571 -3138 0
1 -571 3107 0
1 571 -3123 0
1 -571 -3197 0
1 -586 3168 0
1 586 -3138 0
1 -586 3212 0
1 -3197 676 0
1 -3197 630 0
1 -3197 -571 0
1 3212 3211 0
1 3212 631 0
1 -3227 661 0
1 -3227 -3228 0
1 -3227 511 0
1 -600 3168 0
1 -600 -3153 0
1 600 601 0
1 615 3107 0
1 615 3153 0
1 615 600 0
1 -630 3168 0
1 -630 -3182 0
1 -645 -646 0
1 645 -630 0
1 3123 3138 0
1 3123 -615 0
1 3123 -690 0
1 3138 705 0
1 -3138 -615 0
1 -3153 706 0
1 -3153 645 0
1 -3153 586 0
1 3153 3152 0
1 -3153 600 0
1 3168 -736 0
1 -3168 -615 0
1 3168 -3153 0
1 3168 3167 0
1 -690 3123 0
1 705 -3138 0
1 705 3123 0
1 3063 705 0
1 3063 -750 0
1 -3063 660 0
1 3078 -3079 0
1 -3078 3063 0
1 3093 -736 0
1 3093 -721 0
1 3093 -795 0
1 3108 -645 0
1 3108 -721 0
1 -3108 3093 0
1 -750 3078 0
1 765 3078 0
1 -765 750 0
1 765 3063 0
1 765 -3003 0
1 -3033 750 0
1 3048 -750 0
1 3048 720 0
1 3048 690 0
1 -3048 -795 0
1 64 -3840 0
1 94 3855 0
1 -94 -3795 0
1 94 -93 0
1 109 -108 0
1 109 3885 0
1 -109 -110 0
1 -3840 64 0
1 -3840 -139 0
1 -3840 109 0
1 3855 79 0
1 -3855 -154 0
1 -3855 -124 0
1 -3870 200 0
1 3870 -170 0
1 3870 -109 0
1 3870 79 0
1 -3885 200 0
1 124 -3810 0
1 124 3795 0
1 124 -123 0
1 -139 -140 0
1 -139 3825 0
1 154 3720 0
1 -154 3735 0
1 -154 153 0
1 154 155 0
1 169 3780 0
1 -169 -3750 0
1 169 -3690 0
1 -169 -3735 0
1 -169 3705 0
1 -169 154 0
1 -3780 3781 0
1 -3780 -214 0
1 3780 124 0
1 3795 -3796 0
1 3810 109 0
1 3825 -109 0
1 184 3720 0
1 -184 -3735 0
1 -184 -3690 0
1 184 -3705 0
1 199 -3780 0
1 -199 -3750 0
1 199 3630 0
1 -199 -184 0
1 199 -3675 0
1 214 3750 0
1 -214 3720 0
1 214 3661 0
1 -214 -213 0
1 -229 3795 0
1 229 -3735 0
1 -229 -3706 0
1 -3720 -304 0
1 -3720 184 0
1 3720 154 0
1 -3720 -319 0
1 -3735 -288 0
1 -3735 243 0
1 -3750 -259 0
1 3750 -214 0
1 -3750 154 0
1 -3765 169 0
1 -3765 -214 0
1 -243 -3585 0
1 243 -3720 0
1 -243 3691 0
1 243 -3630 0
1 243 3600 0
1 -243 3570 0
1 -243 -3676 0
1 258 -257 0
1 -258 -259 0
1 -258 -3720 0
1 -258 -3735 0
1 -258 3706 0
1 258 -3615 0
1 -273 3616 0
1 273 -3720 0
1 273 3661 0
1 -273 -272 0
1 -273 3735 0
1 -3661 258 0
1 -3661 273 0
1 -3676 229 0
1 3676 -243 0
1 3691 -334 0
1 -3691 -304 0
1 -3691 3706 0
1 3706 -3691 0
1 303 -3585 0
1 303 3540 0
1 303 -3676 0
1 -303 318 0
1 318 3661 0
1 -318 3631 0
1 -318 -3511 0
1 333 -3586 0
1 -333 -332 0
1 348 -3556 0
1 348 -3631 0
1 348 -3676 0
1 348 -3646 0
1 -3601 3616 0
1 3601 -423 0
1 3601 -273 0
1 3601 -3602 0
1 -3601 -408 0
1 -3616 3617 0
1 -3616 -333 0
1 3616 -348 0
1 3616 318 0
1 -3631 423 0
1 -3631 333 0
1 3631 -379 0
1 3631 -348 0
1 3646 423 0
1 -3646 394 0
1 -363 3586 0
1 363 3556 0
1 363 -364 0
1 -378 3586 0
1 378 -3466 0
1 378 -363 0
1 -378 3601 0
1 -378 -3451 0
1 -393 3616 0
1 -393 3556 0
1 393 394 0
1 -393 -3571 0
1 393 408 0
1 -408 -3571 0
1 408 -3512 0
1 -3541 393 0
1 -3541 498 0
1 -3541 -3542 0
1 -3541 378 0
1 -3556 -422 0
1 -3556 3541 0
1 -3556 348 0
1 -3571 -3586 0
1 3571 333 0
1 3571 3572 0
1 -3586 453 0
1 3586 363 0
1 -3586 498 0
1 3586 -3571 0
1 -437 3556 0
1 -437 3436 0
1 437 -3406 0
1 452 -451 0
1 3482 -3497 0
1 -3482 -527 0
1 -3482 -543 0
1 3497 -3496 0
1 3497 -437 0
1 3497 408 0
1 3512 483 0
1 -3512 393 0
1 -3512 -558 0
1 -3512 437 0
1 3527 -3526 0
1 -3527 558 0
1 -482 -481 0
1 482 -483 0
1 -482 3467 0
1 -482 3422 0
1 -497 -3361 0
1 -497 3406 0
1 -497 -496 0
1 -497 -3376 0
1 -497 -3482 0
1 497 -3452 0
1 -512 -3497 0
1 512 3347 0
1 -512 -3452 0
1 -527 512 0
1 527 -3497 0
1 527 528 0
1 3422 512 0
1 -3422 -467 0
1 -3452 3467 0
1 -3452 -588 0
1 3452 -3453 0
1 557 -3362 0
1 557 -3302 0
1 -557 -3347 0
1 -572 3303 0
1 -572 -587 0
1 -572 -3437 0
1 572 3422 0
1 587 3333 0
1 -587 -3318 0
1 587 -3422 0
1 -3362 512 0
1 -3362 -3363 0
1 -3362 3377 0
1 -3362 631 0
1 3362 -572 0
1 3377 -587 0
1 3392 512 0
1 -3392 -3393 0
1 -3392 647 0
1 3392 -617 0
1 3392 -587 0
1 -3392 557 0
1 -3392 -572 0
1 3407 602 0
1 -601 -3242 0
1 -601 -3318 0
1 -601 602 0
1 -616 3212 0
1 616 601 0
1 -631 3362 0
1 -631 3303 0
1 631 3212 0
1 631 3348 0
1 631 -3318 0
1 -646 -3333 0
1 -646 -647 0
1 -646 3273 0
1 646 3243 0
1 646 3318 0
1 -3333 737 0
1 3333 3332 0
1 -3333 587 0
1 3333 631 0
1 -3348 -707 0
1 3348 3349 0
1 661 3212 0
1 661 662 0
1 -661 -3197 0
1 -676 -3168 0
1 676 677 0
1 -676 3318 0
1 -691 3243 0
1 -691 690 0
1 691 -3318 0
1 -706 3183 0
1 706 -3288 0
1 3243 -706 0
1 3243 676 0
1 3243 -3242 0
1 -3243 721 0
1 3243 -661 0
1 -3258 -751 0
1 3258 721 0
1 -3273 676 0
1 3273 -631 0
1 -3288 -3273 0
1 3288 -3289 0
1 -3288 -796 0
1 3288 -767 0
1 721 -736 0
1 721 3213 0
1 721 3093 0
1 751 3228 0
1 -766 3139 0
1 -766 3108 0
1 766 3183 0
1 -766 3093 0
1 3183 -3182 0
1 -3183 -3198 0
1 3198 -751 0
1 3198 3183 0
1 -3198 856 0
1 3213 841 0
1 -3213 781 0
1 3213 -691 0
1 -3228 3229 0
1 -780 3033 0
1 -780 795 0
1 -795 -3139 0
1 795 3048 0
1 -795 -796 0
1 -810 3169 0
1 -810 3079 0
1 -810 3094 0
1 810 3198 0
1 825 3139 0
1 825 -3109 0
1 825 -3048 0
1 -825 810 0
1 825 -826 0
1 3124 -870 0
1 3124 780 0
1 3124 916 0
1 -3124 -885 0
1 3139 -3138 0
1 -3139 -901 0
1 3139 -870 0
1 -3139 -810 0
1 3139 -825 0
1 -3154 751 0
1 3154 766 0
1 3169 -841 0
1 -3169 3154 0
1 3169 916 0
1 3169 825 0
1 -840 3139 0
1 -840 3109 0
1 855 -840 0
1 -855 -3124 0
1 -855 -3094 0
1 870 -885 0
1 885 886 0
1 -3079 -930 0
1 3079 -3080 0
1 3079 -915 0
1 3094 -960 0
1 3094 -870 0
1 -3094 -3109 0
1 -3094 885 0
1 -3094 -855 0
1 3094 3095 0
1 3109 -960 0
1 3109 -975 0
1 -3109 825 0
1 -900 901 0
1 -900 -3049 0
1 900 3019 0
1 900 -915 0
1 915 -916 0
1 945 -946 0
1 3004 945 0
1 3019 1035 0
1 3019 -1020 0
1 3034 960 0
1 3034 870 0
1 -3034 3049 0
1 3034 -1035 0
1 3034 -945 0
1 3034 -885 0
1 -3034 -3035 0
1 3034 -990 0
1 -3049 1005 0
1 3049 885 0
1 3049 -3034 0
1 3049 1020 0
1 65 4050 0
1 -80 4065 0
1 -80 4035 0
1 -80 4020 0
1 -95 4005 0
1 -95 3990 0
1 95 -94 0
1 -110 -4065 0
1 4020 155 0
1 -4020 125 0
1 -4020 95 0
1 4050 -110 0
1 4065 95 0
1 -125 -3975 0
1 -140 -3975 0
1 -140 -139 0
1 140 3990 0
1 -140 3870 0
1 -155 -3900 0
1 -155 -3990 0
1 -155 3960 0
1 170 4035 0
1 -3960 215 0
1 3975 260 0
1 3975 3960 0
1 -3975 125 0
1 -3975 -95 0
1 -3990 4005 0
1 -3990 245 0
1 -3990 -155 0
1 -3990 -125 0
1 -4005 -260 0
1 -4005 -170 0
1 -185 -3900 0
1 200 -3825 0
1 -200 3960 0
1 200 -3900 0
1 215 -3960 0
1 215 -214 0
1 215 -3871 0
1 -230 3841 0
1 -230 3810 0
1 -230 3886 0
1 -230 -3930 0
1 3900 -170 0
1 -3900 305 0
1 3900 -244 0
1 -3900 185 0
1 3900 3901 0
1 -3915 -215 0
1 3915 -185 0
1 3930 -320 0
1 3930 -3931 0
1 -3930 260 0
1 -3930 -215 0
1 244 -3825 0
1 -259 -3750 0
1 -259 244 0
1 -274 3781 0
1 274 -3750 0
1 -274 -275 0
1 274 3765 0
1 -289 -3841 0
1 289 -3871 0
1 -3841 -365 0
1 3841 3856 0
1 3841 380 0
1 -3871 -320 0
1 -3871 230 0
1 -3871 3886 0
1 3871 305 0
1 3886 -365 0
1 -3886 335 0
1 -3886 -215 0
1 304 -3841 0
1 -304 -303 0
1 -304 -3735 0
1 319 -3765 0
1 -334 -3751 0
1 -334 -3826 0
1 334 -3766 0
1 -334 3736 0
1 349 334 0
1 -349 3766 0
1 349 -3706 0
1 3781 -394 0
1 -3781 -304 0
1 3781 439 0
1 3781 -349 0
1 3796 3781 0
1 3796 364 0
1 -3796 274 0
1 3811 289 0
1 3811 -424 0
1 3811 -365 0
1 3826 -289 0
1 -3826 395 0
1 -3826 -365 0
1 -3826 -334 0
1 -3826 -304 0
1 -3826 -380 0
1 364 -3781 0
1 364 3751 0
1 -364 -3631 0
1 364 3796 0
1 -364 3736 0
1 -364 -3646 0
1 -379 3751 0
1 -394 -395 0
1 -409 394 0
1 409 -3736 0
1 409 3631 0
1 409 -408 0
1 409 -3707 0
1 -409 -3677 0
1 3721 -394 0
1 3736 349 0
1 3766 484 0
1 3766 454 0
1 -3766 364 0
1 3766 334 0
1 -3766 -379 0
1 423 422 0
1 423 -424 0
1 -423 3631 0
1 423 -438 0
1 -423 3736 0
1 423 -3707 0
1 438 423 0
1 -438 -3662 0
1 -438 -3736 0
1 -453 3677 0
1 468 -453 0
1 468 -3602 0
1 -3662 513 0
1 -3662 -483 0
1 3662 -394 0
1 -3662 -468 0
1 -3677 544 0
1 3677 -468 0
1 3677 -438 0
1 -3692 -544 0
1 3692 -453 0
1 3692 394 0
1 3692 468 0
1 -3707 544 0
1 -3707 514 0
1 -3707 -468 0
1 3707 409 0
1 483 3617 0
1 483 3662 0
1 -483 3571 0
1 -498 3586 0
1 -498 -3632 0
1 498 -499 0
1 -498 3541 0
1 513 -3617 0
1 513 -528 0
1 513 3512 0
1 -513 3647 0
1 528 -513 0
1 528 -3617 0
1 528 -3572 0
1 528 3542 0
1 528 -3512 0
1 3602 -483 0
1 3602 618 0
1 3602 3601 0
1 -3602 -498 0
1 -3602 3603 0
1 -3602 -543 0
1 -3617 -453 0
1 -3617 -618 0
1 -3617 -558 0
1 -3617 -3602 0
1 -3632 528 0
1 -3632 -498 0
1 -3647 -513 0
1 3647 -3648 0
1 3647 -453 0
1 -3647 -3646 0
1 3647 -559 0
1 -543 -3617 0
1 543 558 0
1 543 3542 0
1 -558 3587 0
1 558 -557 0
1 573 3557 0
1 573 -3528 0
1 -573 3467 0
1 -573 -588 0
1 -573 3602 0
1 -573 3572 0
1 588 3557 0
1 588 587 0
1 -588 3452 0
1 -3542 3543 0
1 -3542 573 0
1 3542 -543 0
1 -3557 -3556 0
1 -3557 -3558 0
1 3557 -588 0
1 -3557 558 0
1 -3557 602 0
1 -3572 -648 0
1 -3572 558 0
1 3587 603 0
1 3587 -543 0
1 -602 -3557 0
1 -602 603 0
1 602 -3422 0
1 -617 3557 0
1 617 3542 0
1 -632 -3498 0
1 -632 3468 0
1 -632 -3438 0
1 632 3483 0
1 -647 -648 0
1 -647 -3407 0
1 -3483 -662 0
1 3498 -588 0
1 3498 -692 0
1 -3513 -3528 0
1 -3528 -647 0
1 3528 3527 0
1 3528 -3529 0
1 3528 -723 0
1 3528 602 0
1 662 3407 0
1 677 -3392 0
1 677 -3362 0
1 -677 -3333 0
1 677 3407 0
1 -692 3498 0
1 -692 3378 0
1 -692 -3453 0
1 707 -3363 0
1 707 3483 0
1 707 -3423 0
1 3423 -737 0
1 3423 3438 0
1 -3423 -797 0
1 3423 -3422 0
1 3438 707 0
1 -3438 3423 0
1 3438 -3437 0
1 3438 692 0
1 3438 -797 0
1 -3453 692 0
1 -3453 632 0
1 -3468 -768 0
1 3468 -3469 0
1 -3468 -692 0
1 -722 -737 0
1 -722 -3303 0
1 722 -3348 0
1 -737 3408 0
1 -752 -3363 0
1 752 -3334 0
1 -752 3423 0
1 -752 -753 0
1 -752 3378 0
1 752 -3349 0
1 -767 768 0
1 -767 -3378 0
1 3363 -737 0
1 3363 -752 0
1 -3363 -857 0
1 -3363 796 0
1 -3378 -842 0
1 3393 842 0
1 3393 -692 0
1 -3393 857 0
1 3408 -842 0
1 3408 782 0
1 3408 3407 0
1 3408 -3409 0
1 3408 -722 0
1 3408 -797 0
1 781 -782 0
1 -781 3319 0
1 796 3378 0
1 -811 3334 0
1 811 810 0
1 811 3349 0
1 826 811 0
1 826 -3244 0
1 -826 3228 0
1 -3304 841 0
1 3304 -811 0
1 3304 752 0
1 3304 826 0
1 -3319 917 0
1 3319 3318 0
1 -3319 -826 0
1 -3334 3335 0
1 3334 887 0
1 3334 -767 0
1 3349 -842 0
1 -3349 781 0
1 -3349 -887 0
1 3349 826 0
1 -3349 796 0
1 -841 -840 0
1 841 -3274 0
1 841 -3183 0
1 856 -3169 0
1 856 -3154 0
1 -856 857 0
1 -856 -3259 0
1 -871 3154 0
1 -871 3319 0
1 -871 3289 0
1 -886 -3214 0
1 -886 -3259 0
1 -886 3199 0
1 3244 -961 0
1 -3244 -901 0
1 3244 976 0
1 3244 -916 0
1 -3259 -811 0
1 -3259 826 0
1 -3259 -3260 0
1 -3274 -886 0
1 -3289 902 0
1 -3289 947 0
1 3289 917 0
1 -901 -3229 0
1 -916 3214 0
1 -916 -917 0
1 -931 930 0
1 -931 -932 0
1 931 -3125 0
1 -931 3199 0
1 -946 -931 0
1 946 947 0
1 946 -3229 0
1 3184 931 0
1 3184 1036 0
1 -3184 -1005 0
1 -3184 3185 0
1 3184 -886 0
1 -3199 871 0
1 3199 -886 0
1 -3199 990 0
1 3214 -3215 0
1 -3214 916 0
1 3214 -1021 0
1 -3214 991 0
1 3229 -901 0
1 -3229 976 0
1 3229 3230 0
1 -960 -3140 0
1 -960 -3184 0
1 960 -3125 0
1 -960 3199 0
1 975 -3155 0
1 975 -3094 0
1 990 3080 0
1 990 -3049 0
1 990 -1005 0
1 -1005 3199 0
1 3125 -1096 0
1 3125 990 0
1 -3140 931 0
1 -3140 -946 0
1 -3140 1050 0
1 3155 -1066 0
1 3155 -1051 0
1 3170 -931 0
1 -3170 1051 0
1 3170 1021 0
1 1020 -1035 0
1 -1035 -3080 0
1 -1035 1036 0
1 -1050 3020 0
1 3065 1095 0
1 3080 -3079 0
1 3080 1110 0
1 -3080 -1020 0
1 -3095 1050 0
1 -3110 -3095 0
1 3110 1081 0
1 -3110 1050 0
1 -1080 3035 0
1 1095 1096 0
1 1110 3050 0
1 1110 3035 0
1 -1125 -3080 0
1 -1125 1110 0
1 1125 3065 0
1 3005 -1125 0
1 -3005 1050 0
1 -3005 -3004 0
1 3020 1110 0
1 3020 -1080 0
1 -3035 1125 0
1 -3035 1065 0
1 3035 -3050 0
1 -3050 -1065 0
1 -3050 -3049 0
1 3050 1050 0
1 3050 3035 0
1 -245 -4066 0
1 -245 3930 0
1 -260 -4066 0
1 260 4005 0
1 260 3945 0
1 -260 3990 0
1 -260 -3960 0
1 -275 -4036 0
1 275 3945 0
1 -290 -4006 0
1 290 -4021 0
1 290 -3991 0
1 -290 3961 0
1 4021 -290 0
1 -4021 260 0
1 4021 335 0
1 4036 335 0
1 4036 350 0
1 -4066 260 0
1 305 320 0
1 -305 3961 0
1 320 3976 0
1 350 4036 0
1 350 3976 0
1 -3961 290 0
1 -3961 3962 0
1 -3961 305 0
1 3961 -380 0
1 -3976 -425 0
1 3976 275 0
1 3976 410 0
1 -3976 350 0
1 3991 320 0
1 -3991 -290 0
1 3991 -335 0
1 3991 305 0
1 3991 3992 0
1 4006 -290 0
1 4006 -4005 0
1 4006 -425 0
1 -4006 -305 0
1 365 3811 0
1 365 3976 0
1 365 3961 0
1 -380 3841 0
1 -380 3886 0
1 395 -3946 0
1 -395 -3916 0
1 -410 -3931 0
1 410 -3976 0
1 410 395 0
1 -410 3887 0
1 -410 3901 0
1 3901 454 0
1 3901 -3916 0
1 -3901 -469 0
1 -3901 -380 0
1 3916 -3915 0
1 3916 -500 0
1 -3931 485 0
1 3931 -455 0
1 -3931 -365 0
1 3931 -410 0
1 3931 -380 0
1 3931 -350 0
1 -3946 485 0
1 3946 -455 0
1 -3946 -425 0
1 -3946 -395 0
1 3946 -3947 0
1 -3946 -470 0
1 3946 -410 0
1 -424 -3842 0
1 -424 -3781 0
1 424 3751 0
1 -424 3826 0
1 -439 -424 0
1 -439 -3916 0
1 -439 3857 0
1 -439 -3766 0
1 454 -3782 0
1 -454 -3751 0
1 -469 -3751 0
1 469 3797 0
1 3842 454 0
1 3842 -560 0
1 -3842 410 0
1 -3857 395 0
1 -3887 -545 0
1 484 3812 0
1 484 -485 0
1 484 3782 0
1 -484 -3721 0
1 484 -3736 0
1 499 -3857 0
1 -499 -500 0
1 514 3812 0
1 -514 -3857 0
1 -514 -3737 0
1 -529 -3752 0
1 529 -3692 0
1 529 528 0
1 -529 -3827 0
1 3782 -544 0
1 3782 -484 0
1 -3782 -3783 0
1 -3782 619 0
1 3782 -499 0
1 -3782 -469 0
1 -3797 544 0
1 -3797 454 0
1 -3797 3782 0
1 3797 -469 0
1 3812 3811 0
1 3812 -3813 0
1 -3812 -560 0
1 3812 3827 0
1 3812 -469 0
1 -3812 604 0
1 3827 -545 0
1 -3827 484 0
1 3827 -619 0
1 -3827 -3826 0
1 -559 -558 0
1 559 -560 0
1 574 3752 0
1 -574 589 0
1 -574 3678 0
1 589 -3752 0
1 589 590 0
1 -589 3632 0
1 -589 3767 0
1 3722 -3721 0
1 -3737 514 0
1 3737 -679 0
1 -3737 618 0
1 -3737 589 0
1 3737 -3736 0
1 -3752 -544 0
1 3752 679 0
1 3752 3751 0
1 -3752 -3767 0
1 -3767 3752 0
1 3767 -574 0
1 -603 -3587 0
1 603 618 0
1 603 -3722 0
1 603 3693 0
1 -603 3602 0
1 -603 3678 0
1 618 619 0
1 618 -3572 0
1 -618 -3708 0
1 -618 -3678 0
1 -633 3663 0
1 -633 -634 0
1 633 3678 0
1 -648 -3648 0
1 -648 3663 0
1 -3663 678 0
1 -3663 -589 0
1 -3663 3662 0
1 3663 -663 0
1 3663 603 0
1 3663 574 0
1 -3678 633 0
1 -3678 603 0
1 3693 -709 0
1 -3693 664 0
1 -3708 -709 0
1 -3708 -618 0
1 3708 -589 0
1 -3708 724 0
1 3708 694 0
1 3708 -574 0
1 663 -3513 0
1 -678 -3678 0
1 708 3588 0
1 708 693 0
1 -3603 -708 0
1 -3618 708 0
1 3618 648 0
1 -3618 -783 0
1 3618 663 0
1 -3618 -633 0
1 3633 -769 0
1 -3633 -708 0
1 -3633 -3632 0
1 -3633 -754 0
1 -3648 -769 0
1 3648 -708 0
1 3648 3633 0
1 3648 -663 0
1 3648 633 0
1 723 -3498 0
1 -723 3468 0
1 723 -3603 0
1 723 -724 0
1 723 3573 0
1 723 -3543 0
1 723 3453 0
1 738 -3543 0
1 -753 3529 0
1 753 3468 0
1 753 3453 0
1 -768 3618 0
1 768 -3558 0
1 -768 3499 0
1 768 3468 0
1 -768 3543 0
1 -768 -3484 0
1 3543 -3558 0
1 -3543 -782 0
1 3543 -693 0
1 3558 -768 0
1 3558 782 0
1 3558 -858 0
1 3558 -827 0
1 -3573 813 0
1 3573 -3572 0
1 3573 -858 0
1 -3588 -813 0
1 -782 3558 0
1 -782 -3499 0
1 -782 -781 0
1 -782 -3484 0
1 -782 -3423 0
1 -797 -3558 0
1 797 3438 0
1 -797 -3543 0
1 -797 -3514 0
1 -797 -798 0
1 797 3423 0
1 -812 811 0
1 -812 -3454 0
1 -827 -3424 0
1 -827 -3529 0
1 827 -3439 0
1 827 -3543 0
1 -827 -3454 0
1 -3499 812 0
1 -3499 -918 0
1 3514 3513 0
1 -3514 -858 0
1 -3514 827 0
1 -3514 797 0
1 3529 903 0
1 -3529 -3528 0
1 -842 3393 0
1 842 3363 0
1 842 3334 0
1 857 3424 0
1 857 858 0
1 -872 3364 0
1 -872 -3439 0
1 -872 -3454 0
1 887 -3364 0
1 887 3499 0
1 887 3349 0
1 -3424 -932 0
1 -3424 -902 0
1 3424 872 0
1 3424 812 0
1 -3424 -3423 0
1 -3439 872 0
1 -3439 3438 0
1 3439 -3440 0
1 -3439 977 0
1 3439 887 0
1 -3454 -962 0
1 3454 -933 0
1 3454 903 0
1 3454 -3455 0
1 -3469 842 0
1 3469 3468 0
1 3469 -3470 0
1 3469 -887 0
1 902 3274 0
1 902 3289 0
1 917 -3379 0
1 932 3439 0
1 932 -947 0
1 -932 3350 0
1 -947 3394 0
1 947 3335 0
1 947 -3274 0
1 947 -3409 0
1 -947 3320 0
1 -3364 -3363 0
1 3364 -1022 0
1 -3364 991 0
1 3379 -932 0
1 -3379 -3364 0
1 -3379 -1037 0
1 3379 917 0
1 -3379 -1022 0
1 -3394 -902 0
1 3394 -947 0
1 -3409 902 0
1 -3409 1037 0
1 3409 -977 0
1 3409 3410 0
1 -3409 947 0
1 -961 960 0
1 961 -3364 0
1 -961 3335 0
1 -961 -3214 0
1 -961 3379 0
1 961 -3229 0
1 -976 961 0
1 -976 -3305 0
1 -976 975 0
1 991 -3214 0
1 991 1006 0
1 991 3320 0
1 -991 -3260 0
1 -991 3229 0
1 -1006 -3275 0
1 1006 3245 0
1 1006 -3350 0
1 1006 3290 0
1 -3305 932 0
1 3305 1036 0
1 -3305 -1082 0
1 -3320 -3305 0
1 -3320 -1021 0
1 3335 -1052 0
1 -3350 1067 0
1 3350 1037 0
1 -3350 -976 0
1 3350 3349 0
1 -3350 1022 0
1 1021 3305 0
1 -1021 3260 0
1 1021 3290 0
1 1021 3229 0
1 1036 -3155 0
1 -1051 3290 0
1 -1051 -3275 0
1 -1051 3185 0
1 -1066 3200 0
1 3245 -1036 0
1 -3245 -1081 0
1 3245 3260 0
1 3260 1096 0
1 3260 1021 0
1 3275 1127 0
1 3275 1066 0
1 -3275 1051 0
1 -3275 991 0
1 3290 1097 0
1 -3290 -1006 0
1 1081 3200 0
1 1081 -1096 0
1 -1081 3245 0
1 1081 -3215 0
1 -1081 3185 0
1 -1096 3245 0
1 -1096 3260 0
1 -1126 3200 0
1 -1126 -3260 0
1 1126 3230 0
1 -3185 -1096 0
1 -3185 1066 0
1 -3185 -1051 0
1 3200 -1096 0
1 3200 -1051 0
1 -3215 -1096 0
1 -3215 -1066 0
1 -3215 -3230 0
1 3230 3215 0
1 3230 1051 0
1 425 440 0
1 -440 4067 0
1 -440 -3931 0
1 -455 3931 0
1 -470 -3977 0
1 470 -469 0
1 4022 -515 0
1 -4037 455 0
1 -4037 425 0
1 -4037 -440 0
1 -4052 -425 0
1 4052 4051 0
1 485 3872 0
1 -485 -500 0
1 -485 -3962 0
1 500 3872 0
1 500 485 0
1 515 530 0
1 530 515 0
1 530 4037 0
1 -530 4022 0
1 3962 620 0
1 3962 590 0
1 -3962 -470 0
1 -3977 560 0
1 -3977 -530 0
1 3977 -500 0
1 3977 -3962 0
1 3977 575 0
1 -3992 -515 0
1 3992 -455 0
1 -3992 530 0
1 3992 -500 0
1 -4007 500 0
1 -545 -3887 0
1 -545 -3827 0
1 545 -3902 0
1 560 -3872 0
1 560 3842 0
1 560 3812 0
1 -560 559 0
1 560 3887 0
1 560 -3857 0
1 575 -3888 0
1 575 3962 0
1 -590 -3873 0
1 590 -3812 0
1 3902 545 0
1 3902 515 0
1 3902 680 0
1 3902 -575 0
1 3917 -530 0
1 -3917 604 0
1 3932 -620 0
1 -3932 -3933 0
1 -3932 665 0
1 -3947 -650 0
1 3947 530 0
1 -604 605 0
1 619 -618 0
1 -619 620 0
1 -619 3917 0
1 -619 -3888 0
1 -619 3858 0
1 619 3827 0
1 -619 3767 0
1 634 -3798 0
1 634 633 0
1 649 3813 0
1 649 3783 0
1 -649 3828 0
1 -3843 3844 0
1 -3843 634 0
1 3873 740 0
1 -3873 680 0
1 -3873 -619 0
1 3873 665 0
1 3873 -634 0
1 -3888 -710 0
1 3888 619 0
1 -3888 -590 0
1 3888 725 0
1 664 -3858 0
1 664 -3798 0
1 -664 663 0
1 -679 3783 0
1 679 -3767 0
1 -694 3783 0
1 -709 708 0
1 3783 739 0
1 -3783 3784 0
1 -3783 -754 0
1 -3798 739 0
1 -3798 634 0
1 3813 740 0
1 3813 -649 0
1 -3813 755 0
1 -3813 -694 0
1 -3828 770 0
1 3828 784 0
1 3828 -755 0
1 -724 3633 0
1 724 -3798 0
1 -739 3723 0
1 -754 3783 0
1 754 3753 0
1 754 3694 0
1 -754 -3768 0
1 754 3679 0
1 -769 768 0
1 -769 3648 0
1 769 3783 0
1 3723 -3722 0
1 3723 -844 0
1 -3723 3724 0
1 3723 -798 0
1 -3738 859 0
1 3753 -769 0
1 3753 3752 0
1 3753 -3768 0
1 -3753 -829 0
1 -3768 709 0
1 -3768 -3769 0
1 -3768 859 0
1 783 3618 0
1 -783 -3588 0
1 783 -3723 0
1 -783 784 0
1 -783 3603 0
1 -783 -3738 0
1 -783 -3679 0
1 -798 -3633 0
1 -798 -3694 0
1 798 799 0
1 813 -3694 0
1 813 -3573 0
1 -813 -3679 0
1 828 3664 0
1 -828 -3573 0
1 -828 -3738 0
1 -3664 -828 0
1 -3679 873 0
1 3679 -843 0
1 3679 -919 0
1 -3679 828 0
1 3694 -3693 0
1 3694 -783 0
1 -3694 859 0
1 -3709 874 0
1 3709 -813 0
1 3709 -859 0
1 843 -3529 0
1 -858 -3649 0
1 858 3634 0
1 858 3514 0
1 858 3679 0
1 873 3619 0
1 -873 874 0
1 873 -3514 0
1 -888 -3664 0
1 888 887 0
1 -3604 -3619 0
1 -3604 -933 0
1 3604 -978 0
1 3604 -3605 0
1 3619 -3618 0
1 3619 3620 0
1 -3619 843 0
1 3619 -3604 0
1 -3619 -918 0
1 3634 -843 0
1 3634 -813 0
1 3634 -978 0
1 3634 3635 0
1 -3649 -934 0
1 3649 813 0
1 -3649 -828 0
1 -903 -3514 0
1 -918 -903 0
1 -918 3499 0
1 -918 -3604 0
1 933 3589 0
1 -933 3500 0
1 -933 -3469 0
1 -933 -3574 0
1 -933 -3515 0
1 948 -3619 0
1 -948 -947 0
1 3544 873 0
1 3544 1007 0
1 -3544 948 0
1 -3544 3543 0
1 -3544 -3545 0
1 -3559 933 0
1 3559 3558 0
1 -3559 -903 0
1 3559 3544 0
1 -3559 873 0
1 3559 -948 0
1 -3559 -1023 0
1 3574 933 0
1 3574 -873 0
1 3574 -948 0
1 3574 -3573 0
1 3589 -3588 0
1 -3589 873 0
1 -3589 -1038 0
1 -3589 918 0
1 3589 1023 0
1 962 -3424 0
1 962 3530 0
1 962 -977 0
1 977 962 0
1 977 3500 0
1 977 3439 0
1 977 3515 0
1 992 -3500 0
1 -992 1007 0
1 992 -3544 0
1 -992 -3485 0
1 1007 -3425 0
1 -1007 -3544 0
1 3485 -1037 0
1 -3485 -977 0
1 3485 1052 0
1 -3485 -1022 0
1 3500 -1067 0
1 -3500 3499 0
1 -3500 1083 0
1 -3500 -1022 0
1 3515 992 0
1 -3515 1038 0
1 3515 -1007 0
1 -3515 1083 0
1 -3530 933 0
1 -3530 -977 0
1 -3530 -1023 0
1 -1022 -3364 0
1 1022 3335 0
1 -1022 3379 0
1 -1022 1023 0
1 1037 -1036 0
1 -1037 -3350 0
1 -1037 -1022 0
1 -1052 -3395 0
1 -1052 3350 0
1 -1052 -1053 0
1 1052 -3455 0
1 1067 3410 0
1 -1067 -3485 0
1 -1067 3455 0
1 3425 -1022 0
1 -3440 -1067 0
1 3440 3439 0
1 3455 1128 0
1 -3455 -1067 0
1 3455 -1113 0
1 -3470 1067 0
1 3470 1022 0
1 -1082 3335 0
1 1082 -1097 0
1 -1082 -3440 0
1 -1082 -3320 0
1 1082 1081 0
1 1097 -3365 0
1 1112 3395 0
1 -1112 3440 0
1 -1112 -1113 0
1 -1127 -3425 0
1 1127 -1126 0
1 -1127 1128 0
1 -1127 3380 0
1 1127 -1112 0
1 -3365 1127 0
1 -3365 -1067 0
1 -3380 -3365 0
1 -3395 3410 0
1 3410 1067 0
1 -605 4068 0
1 605 -4023 0
1 -620 3947 0
1 620 -4053 0
1 -635 -650 0
1 -650 -4008 0
1 650 3978 0
1 650 -3947 0
1 -650 -4053 0
1 650 3993 0
1 650 635 0
1 4023 -4038 0
1 4023 -4022 0
1 4023 635 0
1 4023 605 0
1 -4038 650 0
1 4068 -4069 0
1 4068 -4053 0
1 665 -3873 0
1 -665 -4038 0
1 -665 3978 0
1 665 3947 0
1 665 -3888 0
1 -665 4023 0
1 -665 -3932 0
1 -680 -3873 0
1 680 -4008 0
1 680 -3978 0
1 -680 -4023 0
1 -695 -4038 0
1 -710 3873 0
1 -710 -3918 0
1 3963 -695 0
1 3978 -800 0
1 -4008 4007 0
1 4008 -635 0
1 725 3948 0
1 725 3888 0
1 -725 3903 0
1 740 -3813 0
1 740 -3888 0
1 -740 3963 0
1 -755 3978 0
1 -755 3889 0
1 -770 -769 0
1 770 3844 0
1 -770 -3978 0
1 770 3933 0
1 3903 770 0
1 -3903 -3918 0
1 -3903 725 0
1 -3903 -695 0
1 3918 3919 0
1 -3918 -725 0
1 -3918 3903 0
1 -3918 -860 0
1 -3933 -845 0
1 3933 725 0
1 3933 -830 0
1 -3948 800 0
1 3948 -740 0
1 3948 -755 0
1 -784 3874 0
1 799 800 0
1 799 -3813 0
1 799 3859 0
1 -799 3768 0
1 829 -3844 0
1 3844 -770 0
1 -3844 -755 0
1 -3844 3859 0
1 -3844 920 0
1 3844 859 0
1 3844 -829 0
1 -3859 -770 0
1 -3859 -874 0
1 -3859 -784 0
1 -3874 875 0
1 -3874 845 0
1 3874 860 0
1 -3889 770 0
1 3889 3874 0
1 -3889 875 0
1 844 843 0
1 -844 3768 0
1 -844 -859 0
1 -844 3709 0
1 -859 3844 0
1 859 3814 0
1 -859 -3738 0
1 -874 -3814 0
1 874 -3859 0
1 874 3799 0
1 -874 889 0
1 -889 874 0
1 -889 -3859 0
1 -3784 -904 0
1 3784 3785 0
1 -3784 919 0
1 -3784 -889 0
1 -3799 -844 0
1 -3799 -979 0
1 3814 964 0
1 -3814 3813 0
1 3814 -874 0
1 3814 814 0
1 -3814 829 0
1 -3829 874 0
1 3829 -814 0
1 -3829 -3828 0
1 3829 -859 0
1 904 3679 0
1 919 -3754 0
1 919 918 0
1 -919 920 0
1 934 -3724 0
1 934 -949 0
1 -934 -3710 0
1 949 -3649 0
1 -949 -3724 0
1 -949 3695 0
1 -949 -948 0
1 -949 3799 0
1 949 -3710 0
1 -3724 934 0
1 -3724 -904 0
1 3739 1024 0
1 3739 -949 0
1 -3754 3755 0
1 -3769 1024 0
1 -3769 -1039 0
1 -3769 1009 0
1 3769 979 0
1 -3769 889 0
1 963 964 0
1 -963 3634 0
1 -963 -3604 0
1 -978 3649 0
1 -978 -3665 0
1 -978 -3710 0
1 -993 3665 0
1 1008 -3650 0
1 3665 1038 0
1 -3665 1008 0
1 -3665 949 0
1 3665 -1084 0
1 3680 -978 0
1 3710 -1099 0
1 3710 -3695 0
1 1023 -1038 0
1 -1038 3680 0
1 -1038 -3589 0
1 1038 -1037 0
1 -1038 1039 0
1 -1038 3665 0
1 1038 -3635 0
1 -1038 -3515 0
1 1053 3620 0
1 -1053 -3605 0
1 1053 3575 0
1 -1068 -3575 0
1 1068 -3515 0
1 -3605 -1008 0
1 3605 -1083 0
1 -3620 -1128 0
1 -3620 -1113 0
1 -3635 -1129 0
1 -3635 -1068 0
1 -3650 -1068 0
1 3650 -3635 0
1 3650 -1053 0
1 -1083 3620 0
1 -1083 -3530 0
1 1083 -1082 0
1 -1083 3455 0
1 1113 -3620 0
1 -1113 3590 0
1 -1128 -3620 0
1 1128 3590 0
1 1128 -1129 0
1 -1128 3455 0
1 3545 -1068 0
1 -3545 1113 0
1 3575 -1098 0
1 3590 3575 0
1 -785 -3963 0
1 800 785 0
1 800 4024 0
1 800 -799 0
1 815 4024 0
1 -830 3948 0
1 830 -3933 0
1 4024 4039 0
1 4024 -845 0
1 -4024 -4023 0
1 -4039 -4038 0
1 -4039 -860 0
1 -4069 -4068 0
1 4069 -4070 0
1 4069 785 0
1 845 -3948 0
1 -845 3918 0
1 845 3933 0
1 845 3903 0
1 -860 3918 0
1 -860 -3889 0
1 -860 859 0
1 875 -3979 0
1 -875 3919 0
1 -875 4024 0
1 -890 3949 0
1 890 -3919 0
1 -890 4024 0
1 -890 889 0
1 -3964 -950 0
1 -3979 3980 0
1 -3979 950 0
1 3994 -965 0
1 -3994 -875 0
1 3994 -860 0
1 -3994 -830 0
1 -4009 815 0
1 905 -3844 0
1 905 3814 0
1 905 920 0
1 -905 3934 0
1 -920 -919 0
1 -920 -3934 0
1 935 3875 0
1 935 -3949 0
1 935 3934 0
1 -950 -3814 0
1 950 3964 0
1 3904 -1025 0
1 -3904 -979 0
1 -3919 1009 0
1 -3919 -979 0
1 3934 -875 0
1 -3934 1010 0
1 3949 -995 0
1 3949 965 0
1 3949 935 0
1 -3949 980 0
1 -964 -965 0
1 -964 -3754 0
1 979 978 0
1 994 -3890 0
1 -1009 -3919 0
1 -3845 -964 0
1 -3845 -935 0
1 -3845 -1039 0
1 3845 -979 0
1 3845 -1085 0
1 -3860 -3859 0
1 -3875 -1085 0
1 3890 1100 0
1 -3890 1085 0
1 3890 1055 0
1 1024 1025 0
1 -1024 3695 0
1 -1024 1023 0
1 1039 1040 0
1 -1039 -3860 0
1 -1039 -3830 0
1 1054 3785 0
1 1054 3755 0
1 -1054 1069 0
1 -1054 1053 0
1 1069 1068 0
1 1069 -1070 0
1 -1069 3695 0
1 1069 3830 0
1 -1069 1054 0
1 3785 1024 0
1 3785 -1099 0
1 -3785 -1039 0
1 3785 -1084 0
1 -3800 -1129 0
1 3800 -3785 0
1 -3800 1099 0
1 -3800 1009 0
1 3800 -1084 0
1 3815 1024 0
1 3815 -1009 0
1 -3815 -1054 0
1 3830 -1024 0
1 3830 -3815 0
1 3830 1130 0
1 3830 -1009 0
1 -3830 3829 0
1 3830 1054 0
1 -1084 3785 0
1 1084 -1099 0
1 -1084 3695 0
1 1084 -1083 0
1 -1099 3755 0
1 1099 3800 0
1 -1114 1129 0
1 -1114 1113 0
1 1114 1115 0
1 -3725 3740 0
1 3725 1054 0
1 -3740 3725 0
1 -3755 1114 0
1 -3770 3769 0
1 -965 -4025 0
1 -965 -3934 0
1 -980 -3994 0
1 995 4040 0
1 -995 3949 0
1 995 4055 0
1 995 -3934 0
1 -1010 4040 0
1 1010 -3980 0
1 -1010 -3949 0
1 -1010 3934 0
1 -4025 -4040 0
1 -4025 1070 0
1 4025 -980 0
1 4025 -1055 0
1 4040 -965 0
1 -4040 -1070 0
1 -4040 1040 0
1 -4040 1010 0
1 4040 1055 0
1 1025 -3980 0
1 1025 -3995 0
1 1040 4040 0
1 1040 -3934 0
1 -1055 3980 0
1 1055 -3920 0
1 -1055 -1054 0
1 1070 -3875 0
1 -1070 -1069 0
1 1070 -3890 0
1 -1070 -3935 0
1 -3965 3980 0
1 -3980 -995 0
1 -3980 1085 0
1 4010 -1025 0
1 4010 -4009 0
1 4010 -1040 0
1 1085 -3845 0
1 1085 3860 0
1 -1085 3830 0
1 -1085 -3935 0
1 -1100 -3815 0
1 1100 3950 0
1 1100 -1085 0
1 -1115 3920 0
1 1115 -3935 0
1 1130 -3980 0
1 3905 3920 0
1 3920 1070 0
1 3935 -3934 0
1 3935 -1055 0
1 3950 3935 0
